NAME:  test1
TYPE: AGTSP
COMMENT: gtsp tours
DIMENSION:  65
GTSP_SETS: 17
EDGE_WEIGHT_TYPE: EXPLICIT
EDGE_WEIGHT_FORMAT: FULL_MATRIX 
EDGE_WEIGHT_SECTION
999999	0	999999	999999	35566	35566	999999	999999	35547	35547	35547	35539	35536	35536	35536	35528	35548	35548	35548	35540	35511	35511	35503	999999	35512	35512	35504	999999	35542	35542	35542	35534	35545	35545	35545	35537	35540	35540	35540	35532	35551	35551	999999	999999	35561	35561	999999	999999	35521	35521	35513	999999	35546	35546	35546	35538	35529	35529	35529	35521	35529	35529	35529	35521	0
999999	999999	0	999999	35566	35566	35566	999999	35547	35547	35547	999999	35536	35536	35536	999999	35548	35548	35548	999999	35511	35511	35511	35503	35512	35512	35512	35504	35542	35542	35542	999999	35545	35545	35545	999999	35540	35540	35540	999999	35551	35551	35551	999999	35561	35561	35561	999999	35521	35521	35521	35513	35546	35546	35546	999999	35529	35529	35529	999999	35529	35529	35529	999999	0
999999	999999	999999	0	35566	35566	35566	35566	35547	35547	35547	35547	35536	35536	35536	35536	35548	35548	35548	35548	35511	35511	35511	35511	35512	35512	35512	35512	35542	35542	35542	35542	35545	35545	35545	35545	35540	35540	35540	35540	35551	35551	35551	35551	35561	35561	35561	35561	35521	35521	35521	35521	35546	35546	35546	35546	35529	35529	35529	35529	35529	35529	35529	35529	0
0	999999	999999	999999	35566	35566	35566	35558	35547	35547	35539	999999	35536	35536	35528	999999	35548	35548	35540	999999	35511	35503	999999	999999	35512	35504	999999	999999	35542	35542	35534	999999	35545	35545	35537	999999	35540	35540	35532	999999	35551	35551	35551	35543	35561	35561	35561	35553	35521	35513	999999	999999	35546	35546	35538	999999	35529	35529	35521	999999	35529	35529	35521	999999	0
35566	35566	999999	999999	999999	0	999999	999999	35537	35537	35537	35529	35538	35538	35538	35530	35537	35537	35537	35529	35563	35563	999999	999999	35571	35571	999999	999999	35549	35549	35549	35541	35537	35537	35537	35529	35560	35560	999999	999999	35538	35538	35538	35530	35537	35537	35537	35529	35553	35553	999999	999999	35553	35553	999999	999999	35544	35544	35544	35536	35545	35545	35545	35537	0
35566	35566	35566	999999	999999	999999	0	999999	35537	35537	35537	999999	35538	35538	35538	999999	35537	35537	35537	999999	35563	35563	35563	999999	35571	35571	35571	999999	35549	35549	35549	999999	35537	35537	35537	999999	35560	35560	35560	999999	35538	35538	35538	999999	35537	35537	35537	999999	35553	35553	35553	999999	35553	35553	35553	999999	35544	35544	35544	999999	35545	35545	35545	999999	0
35566	35566	35566	35566	999999	999999	999999	0	35537	35537	35537	35537	35538	35538	35538	35538	35537	35537	35537	35537	35563	35563	35563	35563	35571	35571	35571	35571	35549	35549	35549	35549	35537	35537	35537	35537	35560	35560	35560	35560	35538	35538	35538	35538	35537	35537	35537	35537	35553	35553	35553	35553	35553	35553	35553	35553	35544	35544	35544	35544	35545	35545	35545	35545	0
35566	35566	35566	35558	0	999999	999999	999999	35537	35537	35529	999999	35538	35538	35530	999999	35537	35537	35529	999999	35563	35563	35563	35555	35571	999999	999999	999999	35549	35549	35541	999999	35537	35537	35529	999999	35560	35560	35560	35552	35538	35538	35530	999999	35537	35537	35529	999999	35553	35553	35553	35545	35553	35553	35553	35545	35544	35544	35536	999999	35545	35545	35537	999999	0
35547	35547	35547	35539	35537	35537	35537	35529	999999	0	999999	999999	35528	35528	35528	35520	35544	35544	35544	35536	35543	35543	35543	35535	35550	35550	999999	999999	35551	35551	999999	999999	35542	35542	35542	35534	35530	35530	35530	35522	35547	35547	35547	35539	35521	35521	35513	999999	35534	35534	35534	35526	35557	35557	999999	999999	35532	35532	35532	35524	35529	35529	35529	35521	0
35547	35547	35547	999999	35537	35537	35537	999999	999999	999999	0	999999	35528	35528	35528	999999	35544	35544	35544	999999	35543	35543	35543	999999	35550	35550	35550	999999	35551	35551	35551	999999	35542	35542	35542	999999	35530	35530	35530	999999	35547	35547	35547	999999	35521	35521	35521	35513	35534	35534	35534	999999	35557	35557	35557	999999	35532	35532	35532	999999	35529	35529	35529	999999	0
35547	35547	35547	35547	35537	35537	35537	35537	999999	999999	999999	0	35528	35528	35528	35528	35544	35544	35544	35544	35543	35543	35543	35543	35550	35550	35550	35550	35551	35551	35551	35551	35542	35542	35542	35542	35530	35530	35530	35530	35547	35547	35547	35547	35521	35521	35521	35521	35534	35534	35534	35534	35557	35557	35557	35557	35532	35532	35532	35532	35529	35529	35529	35529	0
35547	35547	35539	999999	35537	35537	35529	999999	0	999999	999999	999999	35528	35528	35520	999999	35544	35544	35536	999999	35543	35543	35535	999999	35550	35550	35550	35542	35551	35551	35551	35543	35542	35542	35534	999999	35530	35530	35522	999999	35547	35547	35539	999999	35521	35513	999999	999999	35534	35534	35526	999999	35557	35557	35557	35549	35532	35532	35524	999999	35529	35529	35521	999999	0
35536	35536	35536	35528	35538	35538	35538	35530	35528	35528	35528	35520	999999	0	999999	999999	35526	35526	35518	999999	35532	35532	35532	35524	35540	35540	35540	35532	35529	35529	35529	35521	35523	35523	35515	999999	35541	35541	35541	35533	35529	35529	35529	35521	35541	35541	35541	35533	35523	35523	35515	999999	35535	35535	35535	35527	35513	35513	35505	999999	35514	35514	35506	999999	0
35536	35536	35536	999999	35538	35538	35538	999999	35528	35528	35528	999999	999999	999999	0	999999	35526	35526	35526	35518	35532	35532	35532	999999	35540	35540	35540	999999	35529	35529	35529	999999	35523	35523	35523	35515	35541	35541	35541	999999	35529	35529	35529	999999	35541	35541	35541	999999	35523	35523	35523	35515	35535	35535	35535	999999	35513	35513	35513	35505	35514	35514	35514	35506	0
35536	35536	35536	35536	35538	35538	35538	35538	35528	35528	35528	35528	999999	999999	999999	0	35526	35526	35526	35526	35532	35532	35532	35532	35540	35540	35540	35540	35529	35529	35529	35529	35523	35523	35523	35523	35541	35541	35541	35541	35529	35529	35529	35529	35541	35541	35541	35541	35523	35523	35523	35523	35535	35535	35535	35535	35513	35513	35513	35513	35514	35514	35514	35514	0
35536	35536	35528	999999	35538	35538	35530	999999	35528	35528	35520	999999	0	999999	999999	999999	35526	35518	999999	999999	35532	35532	35524	999999	35540	35540	35532	999999	35529	35529	35521	999999	35523	35515	999999	999999	35541	35541	35533	999999	35529	35529	35521	999999	35541	35541	35533	999999	35523	35515	999999	999999	35535	35535	35527	999999	35513	35505	999999	999999	35514	35506	999999	999999	0
35548	35548	35548	35540	35537	35537	35537	35529	35544	35544	35544	35536	35526	35526	35518	999999	999999	0	999999	999999	35545	35545	35545	35537	35553	35553	999999	999999	35519	35519	35511	999999	35510	35510	35502	999999	35560	35560	999999	999999	35510	35510	35502	999999	35555	35555	999999	999999	35539	35539	35539	35531	35523	35523	35515	999999	35528	35528	35520	999999	35532	35532	35532	35524	0
35548	35548	35548	999999	35537	35537	35537	999999	35544	35544	35544	999999	35526	35526	35526	35518	999999	999999	0	999999	35545	35545	35545	999999	35553	35553	35553	999999	35519	35519	35519	35511	35510	35510	35510	35502	35560	35560	35560	999999	35510	35510	35510	35502	35555	35555	35555	999999	35539	35539	35539	999999	35523	35523	35523	35515	35528	35528	35528	35520	35532	35532	35532	999999	0
35548	35548	35548	35548	35537	35537	35537	35537	35544	35544	35544	35544	35526	35526	35526	35526	999999	999999	999999	0	35545	35545	35545	35545	35553	35553	35553	35553	35519	35519	35519	35519	35510	35510	35510	35510	35560	35560	35560	35560	35510	35510	35510	35510	35555	35555	35555	35555	35539	35539	35539	35539	35523	35523	35523	35523	35528	35528	35528	35528	35532	35532	35532	35532	0
35548	35548	35540	999999	35537	35537	35529	999999	35544	35544	35536	999999	35526	35518	999999	999999	0	999999	999999	999999	35545	35545	35537	999999	35553	35553	35553	35545	35519	35511	999999	999999	35510	35502	999999	999999	35560	35560	35560	35552	35510	35502	999999	999999	35555	35555	35555	35547	35539	35539	35531	999999	35523	35515	999999	999999	35528	35520	999999	999999	35532	35532	35524	999999	0
35511	35511	35503	999999	35563	35563	999999	999999	35543	35543	35543	35535	35532	35532	35532	35524	35545	35545	35545	35537	999999	0	999999	999999	35515	35515	35507	999999	35540	35540	35540	35532	35543	35543	35543	35535	35538	35538	35538	35530	35548	35548	35548	35540	35557	35557	999999	999999	35517	35517	35509	999999	35544	35544	35544	35536	35526	35526	35518	999999	35525	35525	35517	999999	0
35511	35511	35511	35503	35563	35563	35563	999999	35543	35543	35543	999999	35532	35532	35532	999999	35545	35545	35545	999999	999999	999999	0	999999	35515	35515	35515	35507	35540	35540	35540	999999	35543	35543	35543	999999	35538	35538	35538	999999	35548	35548	35548	999999	35557	35557	35557	999999	35517	35517	35517	35509	35544	35544	35544	999999	35526	35526	35526	35518	35525	35525	35525	35517	0
35511	35511	35511	35511	35563	35563	35563	35563	35543	35543	35543	35543	35532	35532	35532	35532	35545	35545	35545	35545	999999	999999	999999	0	35515	35515	35515	35515	35540	35540	35540	35540	35543	35543	35543	35543	35538	35538	35538	35538	35548	35548	35548	35548	35557	35557	35557	35557	35517	35517	35517	35517	35544	35544	35544	35544	35526	35526	35526	35526	35525	35525	35525	35525	0
35511	35503	999999	999999	35563	35563	35563	35555	35543	35543	35535	999999	35532	35532	35524	999999	35545	35545	35537	999999	0	999999	999999	999999	35515	35507	999999	999999	35540	35540	35532	999999	35543	35543	35535	999999	35538	35538	35530	999999	35548	35548	35540	999999	35557	35557	35557	35549	35517	35509	999999	999999	35544	35544	35536	999999	35526	35518	999999	999999	35525	35517	999999	999999	0
35512	35512	35504	999999	35571	35571	999999	999999	35550	35550	999999	999999	35540	35540	35540	35532	35553	35553	999999	999999	35515	35515	35507	999999	999999	0	999999	999999	35547	35547	35547	35539	35550	35550	999999	999999	35540	35540	35540	35532	35556	35556	999999	999999	35563	35563	999999	999999	35525	35525	35517	999999	35550	35550	999999	999999	35534	35534	35534	35526	35533	35533	35533	35525	0
35512	35512	35512	35504	35571	35571	35571	999999	35550	35550	35550	999999	35540	35540	35540	999999	35553	35553	35553	999999	35515	35515	35515	35507	999999	999999	0	999999	35547	35547	35547	999999	35550	35550	35550	999999	35540	35540	35540	999999	35556	35556	35556	999999	35563	35563	35563	999999	35525	35525	35525	35517	35550	35550	35550	999999	35534	35534	35534	999999	35533	35533	35533	999999	0
35512	35512	35512	35512	35571	35571	35571	35571	35550	35550	35550	35550	35540	35540	35540	35540	35553	35553	35553	35553	35515	35515	35515	35515	999999	999999	999999	0	35547	35547	35547	35547	35550	35550	35550	35550	35540	35540	35540	35540	35556	35556	35556	35556	35563	35563	35563	35563	35525	35525	35525	35525	35550	35550	35550	35550	35534	35534	35534	35534	35533	35533	35533	35533	0
35512	35504	999999	999999	35571	999999	999999	999999	35550	35550	35550	35542	35540	35540	35532	999999	35553	35553	35553	35545	35515	35507	999999	999999	0	999999	999999	999999	35547	35547	35539	999999	35550	35550	35550	35542	35540	35540	35532	999999	35556	35556	35556	35548	35563	35563	35563	35555	35525	35517	999999	999999	35550	35550	35550	35542	35534	35534	35526	999999	35533	35533	35525	999999	0
35542	35542	35542	35534	35549	35549	35549	35541	35551	35551	999999	999999	35529	35529	35529	35521	35519	35519	35511	999999	35540	35540	35540	35532	35547	35547	35547	35539	999999	0	999999	999999	35519	35519	35511	999999	35562	35562	999999	999999	35520	35520	35512	999999	35563	35563	999999	999999	35537	35537	35537	35529	35513	35513	35505	999999	35528	35528	35528	35520	35532	35532	35532	35524	0
35542	35542	35542	999999	35549	35549	35549	999999	35551	35551	35551	999999	35529	35529	35529	999999	35519	35519	35519	35511	35540	35540	35540	999999	35547	35547	35547	999999	999999	999999	0	999999	35519	35519	35519	35511	35562	35562	35562	999999	35520	35520	35520	35512	35563	35563	35563	999999	35537	35537	35537	999999	35513	35513	35513	35505	35528	35528	35528	999999	35532	35532	35532	999999	0
35542	35542	35542	35542	35549	35549	35549	35549	35551	35551	35551	35551	35529	35529	35529	35529	35519	35519	35519	35519	35540	35540	35540	35540	35547	35547	35547	35547	999999	999999	999999	0	35519	35519	35519	35519	35562	35562	35562	35562	35520	35520	35520	35520	35563	35563	35563	35563	35537	35537	35537	35537	35513	35513	35513	35513	35528	35528	35528	35528	35532	35532	35532	35532	0
35542	35542	35534	999999	35549	35549	35541	999999	35551	35551	35551	35543	35529	35529	35521	999999	35519	35511	999999	999999	35540	35540	35532	999999	35547	35547	35539	999999	0	999999	999999	999999	35519	35511	999999	999999	35562	35562	35562	35554	35520	35512	999999	999999	35563	35563	35563	35555	35537	35537	35529	999999	35513	35505	999999	999999	35528	35528	35520	999999	35532	35532	35524	999999	0
35545	35545	35545	35537	35537	35537	35537	35529	35542	35542	35542	35534	35523	35523	35515	999999	35510	35510	35502	999999	35543	35543	35543	35535	35550	35550	999999	999999	35519	35519	35511	999999	999999	0	999999	999999	35557	35557	999999	999999	35513	35513	35505	999999	35553	35553	999999	999999	35536	35536	35536	35528	35524	35524	35516	999999	35525	35525	35517	999999	35528	35528	35528	35520	0
35545	35545	35545	999999	35537	35537	35537	999999	35542	35542	35542	999999	35523	35523	35523	35515	35510	35510	35510	35502	35543	35543	35543	999999	35550	35550	35550	999999	35519	35519	35519	35511	999999	999999	0	999999	35557	35557	35557	999999	35513	35513	35513	35505	35553	35553	35553	999999	35536	35536	35536	999999	35524	35524	35524	35516	35525	35525	35525	35517	35528	35528	35528	999999	0
35545	35545	35545	35545	35537	35537	35537	35537	35542	35542	35542	35542	35523	35523	35523	35523	35510	35510	35510	35510	35543	35543	35543	35543	35550	35550	35550	35550	35519	35519	35519	35519	999999	999999	999999	0	35557	35557	35557	35557	35513	35513	35513	35513	35553	35553	35553	35553	35536	35536	35536	35536	35524	35524	35524	35524	35525	35525	35525	35525	35528	35528	35528	35528	0
35545	35545	35537	999999	35537	35537	35529	999999	35542	35542	35534	999999	35523	35515	999999	999999	35510	35502	999999	999999	35543	35543	35535	999999	35550	35550	35550	35542	35519	35511	999999	999999	0	999999	999999	999999	35557	35557	35557	35549	35513	35505	999999	999999	35553	35553	35553	35545	35536	35536	35528	999999	35524	35516	999999	999999	35525	35517	999999	999999	35528	35528	35520	999999	0
35540	35540	35540	35532	35560	35560	999999	999999	35530	35530	35530	35522	35541	35541	35541	35533	35560	35560	999999	999999	35538	35538	35538	35530	35540	35540	35540	35532	35562	35562	999999	999999	35557	35557	999999	999999	999999	0	999999	999999	35563	35563	999999	999999	35538	35538	35538	35530	35533	35533	35533	35525	35567	35567	999999	999999	35541	35541	35541	35533	35536	35536	35536	35528	0
35540	35540	35540	999999	35560	35560	35560	999999	35530	35530	35530	999999	35541	35541	35541	999999	35560	35560	35560	999999	35538	35538	35538	999999	35540	35540	35540	999999	35562	35562	35562	999999	35557	35557	35557	999999	999999	999999	0	999999	35563	35563	35563	999999	35538	35538	35538	999999	35533	35533	35533	999999	35567	35567	35567	999999	35541	35541	35541	999999	35536	35536	35536	999999	0
35540	35540	35540	35540	35560	35560	35560	35560	35530	35530	35530	35530	35541	35541	35541	35541	35560	35560	35560	35560	35538	35538	35538	35538	35540	35540	35540	35540	35562	35562	35562	35562	35557	35557	35557	35557	999999	999999	999999	0	35563	35563	35563	35563	35538	35538	35538	35538	35533	35533	35533	35533	35567	35567	35567	35567	35541	35541	35541	35541	35536	35536	35536	35536	0
35540	35540	35532	999999	35560	35560	35560	35552	35530	35530	35522	999999	35541	35541	35533	999999	35560	35560	35560	35552	35538	35538	35530	999999	35540	35540	35532	999999	35562	35562	35562	35554	35557	35557	35557	35549	0	999999	999999	999999	35563	35563	35563	35555	35538	35538	35530	999999	35533	35533	35525	999999	35567	35567	35567	35559	35541	35541	35533	999999	35536	35536	35528	999999	0
35551	35551	999999	999999	35538	35538	35538	35530	35547	35547	35547	35539	35529	35529	35529	35521	35510	35510	35502	999999	35548	35548	35548	35540	35556	35556	999999	999999	35520	35520	35512	999999	35513	35513	35505	999999	35563	35563	999999	999999	999999	0	999999	999999	35557	35557	999999	999999	35542	35542	35542	35534	35523	35523	35515	999999	35531	35531	35531	35523	35535	35535	35535	35527	0
35551	35551	35551	999999	35538	35538	35538	999999	35547	35547	35547	999999	35529	35529	35529	999999	35510	35510	35510	35502	35548	35548	35548	999999	35556	35556	35556	999999	35520	35520	35520	35512	35513	35513	35513	35505	35563	35563	35563	999999	999999	999999	0	999999	35557	35557	35557	999999	35542	35542	35542	999999	35523	35523	35523	35515	35531	35531	35531	999999	35535	35535	35535	999999	0
35551	35551	35551	35551	35538	35538	35538	35538	35547	35547	35547	35547	35529	35529	35529	35529	35510	35510	35510	35510	35548	35548	35548	35548	35556	35556	35556	35556	35520	35520	35520	35520	35513	35513	35513	35513	35563	35563	35563	35563	999999	999999	999999	0	35557	35557	35557	35557	35542	35542	35542	35542	35523	35523	35523	35523	35531	35531	35531	35531	35535	35535	35535	35535	0
35551	35551	35551	35543	35538	35538	35530	999999	35547	35547	35539	999999	35529	35529	35521	999999	35510	35502	999999	999999	35548	35548	35540	999999	35556	35556	35556	35548	35520	35512	999999	999999	35513	35505	999999	999999	35563	35563	35563	35555	0	999999	999999	999999	35557	35557	35557	35549	35542	35542	35534	999999	35523	35515	999999	999999	35531	35531	35523	999999	35535	35535	35527	999999	0
35561	35561	999999	999999	35537	35537	35537	35529	35521	35521	35513	999999	35541	35541	35541	35533	35555	35555	999999	999999	35557	35557	999999	999999	35563	35563	999999	999999	35563	35563	999999	999999	35553	35553	999999	999999	35538	35538	35538	35530	35557	35557	999999	999999	999999	0	999999	999999	35548	35548	35548	35540	35569	35569	999999	999999	35546	35546	35546	35538	35543	35543	35543	35535	0
35561	35561	35561	999999	35537	35537	35537	999999	35521	35521	35521	35513	35541	35541	35541	999999	35555	35555	35555	999999	35557	35557	35557	999999	35563	35563	35563	999999	35563	35563	35563	999999	35553	35553	35553	999999	35538	35538	35538	999999	35557	35557	35557	999999	999999	999999	0	999999	35548	35548	35548	999999	35569	35569	35569	999999	35546	35546	35546	999999	35543	35543	35543	999999	0
35561	35561	35561	35561	35537	35537	35537	35537	35521	35521	35521	35521	35541	35541	35541	35541	35555	35555	35555	35555	35557	35557	35557	35557	35563	35563	35563	35563	35563	35563	35563	35563	35553	35553	35553	35553	35538	35538	35538	35538	35557	35557	35557	35557	999999	999999	999999	0	35548	35548	35548	35548	35569	35569	35569	35569	35546	35546	35546	35546	35543	35543	35543	35543	0
35561	35561	35561	35553	35537	35537	35529	999999	35521	35513	999999	999999	35541	35541	35533	999999	35555	35555	35555	35547	35557	35557	35557	35549	35563	35563	35563	35555	35563	35563	35563	35555	35553	35553	35553	35545	35538	35538	35530	999999	35557	35557	35557	35549	0	999999	999999	999999	35548	35548	35540	999999	35569	35569	35569	35561	35546	35546	35538	999999	35543	35543	35535	999999	0
35521	35521	35513	999999	35553	35553	999999	999999	35534	35534	35534	35526	35523	35523	35515	999999	35539	35539	35539	35531	35517	35517	35509	999999	35525	35525	35517	999999	35537	35537	35537	35529	35536	35536	35536	35528	35533	35533	35533	35525	35542	35542	35542	35534	35548	35548	35548	35540	999999	0	999999	999999	35542	35542	35542	35534	35518	35518	35510	999999	35516	35516	35508	999999	0
35521	35521	35521	35513	35553	35553	35553	999999	35534	35534	35534	999999	35523	35523	35523	35515	35539	35539	35539	999999	35517	35517	35517	35509	35525	35525	35525	35517	35537	35537	35537	999999	35536	35536	35536	999999	35533	35533	35533	999999	35542	35542	35542	999999	35548	35548	35548	999999	999999	999999	0	999999	35542	35542	35542	999999	35518	35518	35518	35510	35516	35516	35516	35508	0
35521	35521	35521	35521	35553	35553	35553	35553	35534	35534	35534	35534	35523	35523	35523	35523	35539	35539	35539	35539	35517	35517	35517	35517	35525	35525	35525	35525	35537	35537	35537	35537	35536	35536	35536	35536	35533	35533	35533	35533	35542	35542	35542	35542	35548	35548	35548	35548	999999	999999	999999	0	35542	35542	35542	35542	35518	35518	35518	35518	35516	35516	35516	35516	0
35521	35513	999999	999999	35553	35553	35553	35545	35534	35534	35526	999999	35523	35515	999999	999999	35539	35539	35531	999999	35517	35509	999999	999999	35525	35517	999999	999999	35537	35537	35529	999999	35536	35536	35528	999999	35533	35533	35525	999999	35542	35542	35534	999999	35548	35548	35540	999999	0	999999	999999	999999	35542	35542	35534	999999	35518	35510	999999	999999	35516	35508	999999	999999	0
35546	35546	35546	35538	35553	35553	999999	999999	35557	35557	999999	999999	35535	35535	35535	35527	35523	35523	35515	999999	35544	35544	35544	35536	35550	35550	999999	999999	35513	35513	35505	999999	35524	35524	35516	999999	35567	35567	999999	999999	35523	35523	35515	999999	35569	35569	999999	999999	35542	35542	35542	35534	999999	0	999999	999999	35534	35534	35534	35526	35538	35538	35538	35530	0
35546	35546	35546	999999	35553	35553	35553	999999	35557	35557	35557	999999	35535	35535	35535	999999	35523	35523	35523	35515	35544	35544	35544	999999	35550	35550	35550	999999	35513	35513	35513	35505	35524	35524	35524	35516	35567	35567	35567	999999	35523	35523	35523	35515	35569	35569	35569	999999	35542	35542	35542	999999	999999	999999	0	999999	35534	35534	35534	999999	35538	35538	35538	999999	0
35546	35546	35546	35546	35553	35553	35553	35553	35557	35557	35557	35557	35535	35535	35535	35535	35523	35523	35523	35523	35544	35544	35544	35544	35550	35550	35550	35550	35513	35513	35513	35513	35524	35524	35524	35524	35567	35567	35567	35567	35523	35523	35523	35523	35569	35569	35569	35569	35542	35542	35542	35542	999999	999999	999999	0	35534	35534	35534	35534	35538	35538	35538	35538	0
35546	35546	35538	999999	35553	35553	35553	35545	35557	35557	35557	35549	35535	35535	35527	999999	35523	35515	999999	999999	35544	35544	35536	999999	35550	35550	35550	35542	35513	35505	999999	999999	35524	35516	999999	999999	35567	35567	35567	35559	35523	35515	999999	999999	35569	35569	35569	35561	35542	35542	35534	999999	0	999999	999999	999999	35534	35534	35526	999999	35538	35538	35530	999999	0
35529	35529	35529	35521	35544	35544	35544	35536	35532	35532	35532	35524	35513	35513	35505	999999	35528	35528	35520	999999	35526	35526	35518	999999	35534	35534	35534	35526	35528	35528	35528	35520	35525	35525	35517	999999	35541	35541	35541	35533	35531	35531	35531	35523	35546	35546	35546	35538	35518	35518	35510	999999	35534	35534	35534	35526	999999	0	999999	999999	35511	35511	35503	999999	0
35529	35529	35529	999999	35544	35544	35544	999999	35532	35532	35532	999999	35513	35513	35513	35505	35528	35528	35528	35520	35526	35526	35526	35518	35534	35534	35534	999999	35528	35528	35528	999999	35525	35525	35525	35517	35541	35541	35541	999999	35531	35531	35531	999999	35546	35546	35546	999999	35518	35518	35518	35510	35534	35534	35534	999999	999999	999999	0	999999	35511	35511	35511	35503	0
35529	35529	35529	35529	35544	35544	35544	35544	35532	35532	35532	35532	35513	35513	35513	35513	35528	35528	35528	35528	35526	35526	35526	35526	35534	35534	35534	35534	35528	35528	35528	35528	35525	35525	35525	35525	35541	35541	35541	35541	35531	35531	35531	35531	35546	35546	35546	35546	35518	35518	35518	35518	35534	35534	35534	35534	999999	999999	999999	0	35511	35511	35511	35511	0
35529	35529	35521	999999	35544	35544	35536	999999	35532	35532	35524	999999	35513	35505	999999	999999	35528	35520	999999	999999	35526	35518	999999	999999	35534	35534	35526	999999	35528	35528	35520	999999	35525	35517	999999	999999	35541	35541	35533	999999	35531	35531	35523	999999	35546	35546	35538	999999	35518	35510	999999	999999	35534	35534	35526	999999	0	999999	999999	999999	35511	35503	999999	999999	0
35529	35529	35529	35521	35545	35545	35545	35537	35529	35529	35529	35521	35514	35514	35506	999999	35532	35532	35532	35524	35525	35525	35517	999999	35533	35533	35533	35525	35532	35532	35532	35524	35528	35528	35528	35520	35536	35536	35536	35528	35535	35535	35535	35527	35543	35543	35543	35535	35516	35516	35508	999999	35538	35538	35538	35530	35511	35511	35503	999999	999999	0	999999	999999	0
35529	35529	35529	999999	35545	35545	35545	999999	35529	35529	35529	999999	35514	35514	35514	35506	35532	35532	35532	999999	35525	35525	35525	35517	35533	35533	35533	999999	35532	35532	35532	999999	35528	35528	35528	999999	35536	35536	35536	999999	35535	35535	35535	999999	35543	35543	35543	999999	35516	35516	35516	35508	35538	35538	35538	999999	35511	35511	35511	35503	999999	999999	0	999999	0
35529	35529	35529	35529	35545	35545	35545	35545	35529	35529	35529	35529	35514	35514	35514	35514	35532	35532	35532	35532	35525	35525	35525	35525	35533	35533	35533	35533	35532	35532	35532	35532	35528	35528	35528	35528	35536	35536	35536	35536	35535	35535	35535	35535	35543	35543	35543	35543	35516	35516	35516	35516	35538	35538	35538	35538	35511	35511	35511	35511	999999	999999	999999	0	0
35529	35529	35521	999999	35545	35545	35537	999999	35529	35529	35521	999999	35514	35506	999999	999999	35532	35532	35524	999999	35525	35517	999999	999999	35533	35533	35525	999999	35532	35532	35524	999999	35528	35528	35520	999999	35536	35536	35528	999999	35535	35535	35527	999999	35543	35543	35535	999999	35516	35508	999999	999999	35538	35538	35530	999999	35511	35503	999999	999999	0	999999	999999	999999	0
35499	999999	999999	999999	35499	999999	999999	999999	35499	999999	999999	999999	35499	999999	999999	999999	35499	999999	999999	999999	35499	999999	999999	999999	35499	999999	999999	999999	35499	999999	999999	999999	35499	999999	999999	999999	35499	999999	999999	999999	35499	999999	999999	999999	35499	999999	999999	999999	35499	999999	999999	999999	35499	999999	999999	999999	35499	999999	999999	999999	35499	999999	999999	999999	999999
GTSP_SET_SECTION:
1 1 2 3 4 -1
2 5 6 7 8 -1
3 9 10 11 12 -1
4 13 14 15 16 -1
5 17 18 19 20 -1
6 21 22 23 24 -1
7 25 26 27 28 -1
8 29 30 31 32 -1
9 33 34 35 36 -1
10 37 38 39 40 -1
11 41 42 43 44 -1
12 45 46 47 48 -1
13 49 50 51 52 -1
14 53 54 55 56 -1
15 57 58 59 60 -1
16 61 62 63 64 -1
17 65 -1
EOF